
Gurobi 6.0.4 (win64) logging started 06/16/15 23:21:03

Read LP format model from file E:\Eigene Dateien\Downloads\Michi shit\VRPTWMS-master\VRPTWMS\instances\mip\fuel\N12-C_DV100-C_SV25_F5_9_No_1.lp
Reading time = 0.02 seconds
(null): 865 rows, 404 columns, 3771 nonzeros
Optimize a model with 865 rows, 404 columns and 3771 nonzeros
Model has 1872 quadratic constraints
WARNING: Only barrier available for SOCP models
Coefficient statistics:
  Matrix range    [1e+00, 1e+06]
  Objective range [2e+04, 1e+07]
  Bounds range    [1e+00, 1e+06]
  RHS range       [1e+00, 1e+06]
Presolve removed 90 rows and 54 columns
Presolve time: 0.17s
Presolved: 3674 rows, 1847 columns, 18609 nonzeros
Variable types: 1402 continuous, 445 integer (382 binary)
Found heuristic solution: objective 1.249714e+08
Optimize a model with 3674 rows, 1847 columns and 18609 nonzeros
Coefficient statistics:
  Matrix range    [1e+00, 1e+06]
  Objective range [2e+04, 1e+07]
  Bounds range    [1e+00, 1e+06]
  RHS range       [1e+00, 1e+06]

Concurrent LP optimizer: dual simplex and barrier
Showing barrier log only...

Presolve removed 315 rows and 201 columns
Presolved: 3359 rows, 1646 columns, 17152 nonzeros

Root barrier log...

Ordering time: 0.02s

Barrier performed 0 iterations in 0.21 seconds
Barrier solve interrupted - model solved by another algorithm


Solved with dual simplex
Solved in 171 iterations and 0.21 seconds
Optimal objective  6.416777719e+06

Root relaxation: objective 6.416778e+06, 171 iterations, 0.03 seconds

    Nodes    |    Current Node    |     Objective Bounds      |     Work
 Expl Unexpl |  Obj  Depth IntInf | Incumbent    BestBd   Gap | It/Node Time

     0     0 6416777.72    0   39 1.2497e+08 6416777.72  94.9%     -    0s
H    0     0                    1.046191e+08 6416777.72  93.9%     -    0s
     0     0 8496168.65    0   91 1.0462e+08 8496168.65  91.9%     -    0s
     0     0 1.1319e+07    0   51 1.0462e+08 1.1319e+07  89.2%     -    0s
H    0     0                    8.378760e+07 1.1319e+07  86.5%     -    0s
H    0     0                    6.316150e+07 1.1319e+07  82.1%     -    0s
     0     0 1.1579e+07    0   79 6.3162e+07 1.1579e+07  81.7%     -    0s
H    0     0                    5.300850e+07 1.1579e+07  78.2%     -    0s
     0     0 1.3007e+07    0   90 5.3009e+07 1.3007e+07  75.5%     -    0s
H    0     0                    4.427840e+07 1.3007e+07  70.6%     -    0s
     0     0 1.3008e+07    0   99 4.4278e+07 1.3008e+07  70.6%     -    0s
     0     0 1.3017e+07    0   75 4.4278e+07 1.3017e+07  70.6%     -    0s
     0     0 1.3020e+07    0   86 4.4278e+07 1.3020e+07  70.6%     -    0s
     0     0 1.3020e+07    0   87 4.4278e+07 1.3020e+07  70.6%     -    0s
     0     0 1.3020e+07    0   85 4.4278e+07 1.3020e+07  70.6%     -    0s
     0     0 1.3020e+07    0   87 4.4278e+07 1.3020e+07  70.6%     -    0s
     0     0 1.3020e+07    0   87 4.4278e+07 1.3020e+07  70.6%     -    0s
     0     2 1.3020e+07    0   87 4.4278e+07 1.3020e+07  70.6%     -    0s
H  111    90                    4.427260e+07 1.3078e+07  70.5%  37.2    0s
*  143   102              37    4.402580e+07 1.3078e+07  70.3%  35.6    0s
H  151   114                    4.402000e+07 1.3078e+07  70.3%  34.8    0s
H  157   116                    4.393520e+07 1.3078e+07  70.2%  34.0    0s
*  365   249              35    4.346800e+07 1.3191e+07  69.7%  33.4    1s
H  384   256                    4.322160e+07 1.3191e+07  69.5%  34.0    1s
H  468   249                    3.389870e+07 1.3263e+07  60.9%  36.0    1s
H  655   356                    3.389840e+07 1.3486e+07  60.2%  34.6    1s
  1109   630 2.2861e+07   18   75 3.3898e+07 2.0496e+07  39.5%  37.6    5s
  2600   887 infeasible   42      3.3898e+07 2.2785e+07  32.8%  59.0   10s
  4085  1340 3.0009e+07   33   62 3.3898e+07 2.2881e+07  32.5%  67.2   15s
  6229  2165     cutoff   27      3.3898e+07 2.3028e+07  32.1%  72.7   21s
  7457  2565 infeasible   31      3.3898e+07 2.3084e+07  31.9%  74.9   25s
  9429  3092     cutoff   21      3.3898e+07 2.3185e+07  31.6%  78.3   30s
 11754  3749     cutoff   37      3.3898e+07 2.3273e+07  31.3%  79.0   35s
 13691  4257 infeasible   38      3.3898e+07 2.3349e+07  31.1%  80.0   40s
 15772  4701 infeasible   32      3.3898e+07 2.3407e+07  30.9%  81.5   45s
*15821  4682              32    3.385440e+07 2.3407e+07  30.9%  81.6   45s
*15884  4364              36    3.357760e+07 2.3407e+07  30.3%  81.5   45s
 17052  4544 2.3762e+07   31   32 3.3578e+07 2.3450e+07  30.2%  82.5   50s
 19041  4833 2.3797e+07   30   54 3.3578e+07 2.3512e+07  30.0%  84.0   55s
 20536  4956 3.3134e+07   36   87 3.3578e+07 2.3557e+07  29.8%  85.4   65s
 20552  4967 2.3716e+07   30   64 3.3578e+07 2.3557e+07  29.8%  85.3   70s
 20563  4974 3.3526e+07   37   95 3.3578e+07 2.3557e+07  29.8%  85.3   75s
 20580  4985 2.3557e+07   24   93 3.3578e+07 2.3557e+07  29.8%  85.5   80s
 21062  4968 3.3432e+07   37   17 3.3578e+07 2.3557e+07  29.8%  85.8   86s
 22493  4779     cutoff   34      3.3578e+07 2.3557e+07  29.8%  86.3   90s
 24757  4412 2.3639e+07   40   18 3.3578e+07 2.3557e+07  29.8%  87.6   96s
 26567  3761 infeasible   39      3.3578e+07 2.3771e+07  29.2%  89.6  100s
 27560  3352 2.3901e+07   57   58 3.3578e+07 2.3901e+07  28.8%  90.6  107s
 28576  2795 infeasible   48      3.3578e+07 2.4177e+07  28.0%  92.3  112s
 29294  2394     cutoff   49      3.3578e+07 2.4734e+07  26.3%  93.5  115s
 30548  2206 3.2610e+07   37   28 3.3578e+07 3.1097e+07  7.39%  93.3  120s
 32998  2079 3.2430e+07   29   30 3.3578e+07 3.2416e+07  3.46%  92.7  126s
 35171  1884 infeasible   33      3.3578e+07 3.2478e+07  3.28%  92.4  131s
 37160  2166     cutoff   48      3.3578e+07 3.2691e+07  2.64%  92.1  136s
 38853  2422 infeasible   35      3.3578e+07 3.2842e+07  2.19%  91.8  140s
 41045  2730 3.3041e+07   37   45 3.3578e+07 3.2885e+07  2.06%  91.9  145s
 43220  2970 3.3378e+07   28   17 3.3578e+07 3.2925e+07  1.94%  91.9  151s
 45242  3185 3.3008e+07   38   24 3.3578e+07 3.2957e+07  1.85%  91.8  156s
 47145  3328 infeasible   35      3.3578e+07 3.2990e+07  1.75%  91.9  161s
 49070  3486 3.3186e+07   38   42 3.3578e+07 3.3017e+07  1.67%  91.9  166s
 50975  3607 3.3430e+07   36   58 3.3578e+07 3.3042e+07  1.60%  91.9  170s
 52653  3671     cutoff   35      3.3578e+07 3.3066e+07  1.52%  91.9  175s
 54276  3615 infeasible   43      3.3578e+07 3.3087e+07  1.46%  92.1  180s
 56312  3633 3.3202e+07   31   25 3.3578e+07 3.3114e+07  1.38%  92.2  185s
 58118  3558     cutoff   53      3.3578e+07 3.3138e+07  1.31%  92.3  190s
 60175  3423 infeasible   40      3.3578e+07 3.3164e+07  1.23%  92.5  196s
 61856  3347     cutoff   41      3.3578e+07 3.3182e+07  1.18%  92.6  200s
 63994  3070 infeasible   34      3.3578e+07 3.3213e+07  1.08%  92.8  206s
 65598  2796 3.3246e+07   43   40 3.3578e+07 3.3236e+07  1.02%  93.0  210s
 67415  2464 3.3335e+07   45   54 3.3578e+07 3.3263e+07  0.94%  93.2  215s
 69620  1950 3.3336e+07   45   16 3.3578e+07 3.3297e+07  0.84%  93.4  220s
 71252  1456 3.3335e+07   48   20 3.3578e+07 3.3333e+07  0.73%  93.6  225s
 73080   834 infeasible   40      3.3578e+07 3.3385e+07  0.57%  93.8  230s

Cutting planes:
  Learned: 8
  Gomory: 9
  Cover: 533
  Implied bound: 556
  Clique: 16
  MIR: 176
  Flow cover: 290
  GUB cover: 11
  Zero half: 116
  Network: 2

Explored 74761 nodes (7014938 simplex iterations) in 233.36 seconds
Thread count was 4 (of 4 available processors)

Optimal solution found (tolerance 1.00e-04)
Best objective 3.357760000000e+07, best bound 3.357760000000e+07, gap 0.0%
k_c1	1000000.0
k_c10	950000.0
k_c11	1000000.0
k_c12	40000.0
k_c2	90000.0
k_c3	190000.0
k_c4	160000.0
k_c5	140000.0
k_c6	20000.0
k_c7	120000.0
k_c8	980000.0
k_c9	920000.0
k_dN	0.0
o_1	0.0
o_10	1.0
o_11	0.0
o_12	0.0
o_2	0.0
o_3	0.0
o_4	0.0
o_5	0.0
o_6	0.0
o_7	1.0
o_8	0.0
o_9	0.0
p_1	0.0
p_10	1.0
p_11	0.0
p_12	0.0
p_2	0.0
p_3	0.0
p_4	0.0
p_5	0.0
p_6	0.0
p_7	1.0
p_8	1.0
p_9	0.0
phi_c1	41972.0
phi_c10	37242.0
phi_c11	36078.0
phi_c12	21514.0
phi_c2	27568.0
phi_c3	48501.0
phi_c4	37309.0
phi_c5	25862.0
phi_c6	5519.0
phi_c7	0.0
phi_c8	21902.0
phi_c9	45772.0
phi_dN	0.0
pi_c1	0.0
pi_c10	90856.0
pi_c11	0.0
pi_c12	0.0
pi_c2	0.0
pi_c3	0.0
pi_c4	0.0
pi_c5	0.0
pi_c6	0.0
pi_c7	50000.0
pi_c8	78098.0
pi_c9	0.0
pi_dN	0.0
tauD_c1	50000.0
tauD_c10	97675.0
tauD_c11	52025.0
tauD_c12	800000.0
tauD_c2	650000.0
tauD_c3	353900.0
tauD_c4	500000.0
tauD_c5	468500.0
tauD_c6	796050.0
tauD_c7	583550.0
tauD_c8	165000.0
tauD_c9	388375.0
tauD_d0	0.0
tauD_dN	1000000.0
tauS_c1	51800.0
tauS_c10	97675.0
tauS_c11	78550.0
tauS_c12	852725.0
tauS_c2	80250.0
tauS_c3	851225.0
tauS_c4	68450.0
tauS_c5	67725.0
tauS_c6	18300.0
tauS_c7	395800.0
tauS_c8	245225.0
tauS_c9	898500.0
tauS_d0	0.0
tauS_dN	753850.0
x_c10_c9	1.0
x_c11_c8	1.0
x_c12_dN	1.0
x_c1_c10	1.0
x_c2_c6	1.0
x_c3_c5	1.0
x_c4_c2	1.0
x_c5_c7	1.0
x_c6_dN	1.0
x_c7_c12	1.0
x_c8_c3	1.0
x_c9_c4	1.0
x_d0_c1	1.0
x_d0_c11	1.0
z_c10_c8	1.0
z_c7_dN	1.0
z_c8_c7	1.0
z_d0_c10	1.0
